DIMACS_lns/graph-1000-627.col
p edge 1000 1808
e 2 691
e 2 192
e 2 766
e 3 266
e 3 306
e 3 977
e 3 921
e 4 511
e 4 680
e 4 690
e 4 143
e 5 598
e 5 25
e 5 736
e 6 429
e 6 43
e 6 192
e 6 423
e 6 155
e 7 720
e 7 890
e 7 522
e 7 553
e 7 46
e 8 166
e 8 1000
e 8 604
e 8 439
e 9 794
e 9 24
e 9 894
e 9 784
e 10 290
e 10 869
e 10 843
e 10 575
e 11 686
e 11 111
e 11 225
e 12 348
e 12 974
e 12 34
e 13 471
e 13 544
e 13 93
e 13 754
e 13 921
e 13 890
e 13 621
e 13 964
e 14 647
e 14 589
e 14 388
e 14 678
e 14 329
e 14 363
e 14 367
e 15 533
e 15 423
e 15 652
e 17 382
e 17 314
e 17 505
e 18 948
e 18 221
e 18 376
e 18 680
e 18 419
e 18 49
e 18 784
e 19 865
e 19 193
e 19 190
e 19 210
e 19 892
e 19 344
e 19 972
e 19 748
e 20 788
e 20 491
e 20 801
e 20 670
e 20 944
e 20 882
e 20 54
e 20 66
e 21 373
e 21 143
e 21 216
e 22 362
e 22 944
e 22 186
e 22 510
e 22 623
e 23 690
e 23 344
e 23 113
e 23 526
e 23 776
e 23 99
e 23 869
e 23 461
e 24 215
e 24 611
e 24 908
e 24 776
e 24 531
e 24 365
e 24 533
e 25 345
e 25 973
e 25 520
e 25 157
e 26 861
e 26 939
e 26 835
e 26 746
e 27 948
e 27 116
e 27 481
e 28 53
e 28 648
e 28 78
e 28 366
e 28 508
e 28 410
e 31 148
e 31 38
e 31 288
e 31 725
e 31 516
e 34 768
e 34 655
e 34 725
e 34 310
e 35 459
e 35 362
e 35 423
e 36 972
e 36 464
e 36 40
e 36 205
e 36 696
e 36 329
e 38 318
e 38 426
e 38 725
e 38 900
e 38 103
e 38 429
e 38 960
e 39 96
e 39 683
e 39 932
e 40 941
e 40 261
e 40 185
e 40 105
e 43 793
e 43 762
e 44 705
e 44 909
e 44 359
e 44 463
e 45 885
e 45 733
e 45 51
e 45 861
e 46 410
e 46 995
e 47 227
e 47 985
e 47 703
e 49 497
e 49 837
e 49 868
e 49 224
e 50 639
e 50 406
e 50 543
e 50 164
e 50 448
e 51 57
e 51 725
e 51 119
e 51 421
e 51 966
e 52 228
e 52 57
e 52 890
e 53 350
e 53 576
e 53 191
e 53 574
e 53 929
e 54 325
e 54 368
e 54 180
e 54 323
e 54 175
e 56 715
e 56 446
e 56 888
e 57 988
e 57 710
e 59 386
e 59 72
e 59 774
e 60 326
e 60 636
e 60 790
e 60 820
e 61 71
e 61 92
e 61 861
e 61 355
e 61 886
e 61 436
e 62 579
e 62 576
e 62 145
e 62 983
e 63 397
e 63 356
e 63 851
e 63 275
e 63 372
e 64 199
e 64 525
e 64 964
e 64 939
e 65 156
e 65 788
e 65 904
e 65 699
e 66 521
e 66 751
e 66 405
e 66 267
e 66 377
e 67 855
e 67 496
e 67 938
e 67 250
e 68 840
e 68 649
e 68 486
e 68 854
e 68 648
e 68 477
e 69 536
e 69 779
e 69 945
e 69 86
e 69 603
e 69 315
e 71 245
e 71 559
e 72 343
e 72 163
e 72 325
e 72 321
e 72 298
e 73 248
e 73 742
e 73 525
e 73 739
e 73 793
e 73 640
e 73 331
e 74 768
e 74 904
e 74 439
e 77 916
e 77 820
e 77 298
e 78 294
e 78 751
e 78 939
e 78 713
e 79 242
e 79 578
e 79 482
e 80 640
e 80 371
e 80 455
e 80 852
e 80 471
e 82 122
e 82 303
e 82 552
e 83 723
e 83 946
e 83 627
e 83 870
e 83 96
e 85 333
e 85 220
e 85 339
e 85 584
e 85 627
e 86 289
e 86 615
e 86 422
e 86 450
e 86 675
e 87 730
e 87 704
e 87 645
e 87 850
e 89 686
e 89 352
e 89 307
e 90 826
e 90 469
e 90 623
e 90 449
e 91 309
e 91 393
e 91 465
e 92 945
e 92 899
e 92 416
e 92 379
e 92 181
e 92 546
e 93 404
e 93 679
e 94 429
e 94 775
e 94 244
e 94 345
e 94 779
e 95 143
e 95 882
e 95 562
e 95 334
e 95 679
e 96 995
e 96 652
e 96 539
e 97 697
e 97 911
e 97 489
e 98 198
e 98 141
e 98 665
e 98 131
e 98 611
e 98 543
e 98 917
e 99 504
e 99 733
e 99 643
e 100 821
e 100 540
e 100 631
e 101 426
e 101 227
e 101 533
e 103 290
e 103 496
e 103 309
e 104 800
e 104 218
e 104 907
e 104 921
e 104 646
e 105 162
e 105 714
e 106 217
e 106 383
e 106 728
e 106 560
e 108 642
e 108 372
e 108 614
e 109 929
e 109 795
e 109 698
e 109 574
e 109 113
e 109 686
e 109 951
e 110 491
e 110 650
e 110 468
e 111 161
e 111 260
e 111 240
e 111 639
e 111 925
e 112 569
e 112 264
e 112 984
e 112 577
e 113 948
e 113 198
e 113 707
e 113 263
e 113 169
e 114 744
e 114 300
e 114 789
e 115 649
e 115 125
e 115 414
e 116 856
e 116 224
e 118 579
e 118 320
e 118 202
e 118 543
e 118 552
e 118 779
e 119 649
e 119 671
e 119 789
e 119 518
e 120 162
e 120 934
e 120 345
e 120 218
e 121 388
e 121 846
e 121 992
e 121 978
e 121 345
e 122 760
e 122 420
e 122 892
e 124 638
e 124 245
e 124 333
e 124 260
e 125 1000
e 125 179
e 126 477
e 126 132
e 126 451
e 127 697
e 127 449
e 127 925
e 128 476
e 128 587
e 128 681
e 128 793
e 131 175
e 131 777
e 131 865
e 131 151
e 131 790
e 131 214
e 132 688
e 132 763
e 132 908
e 133 317
e 133 627
e 133 822
e 133 987
e 134 527
e 134 806
e 134 642
e 136 540
e 136 242
e 136 939
e 136 973
e 136 324
e 136 612
e 136 865
e 136 695
e 137 576
e 137 464
e 137 747
e 137 610
e 139 888
e 139 174
e 139 629
e 140 661
e 140 822
e 140 463
e 140 481
e 141 606
e 141 208
e 141 810
e 142 397
e 142 898
e 142 444
e 142 366
e 143 303
e 144 633
e 144 966
e 144 186
e 145 330
e 145 163
e 145 891
e 145 410
e 147 966
e 147 715
e 147 821
e 147 770
e 148 831
e 148 340
e 148 538
e 148 927
e 148 995
e 151 261
e 151 367
e 151 646
e 152 617
e 152 951
e 152 178
e 152 484
e 155 379
e 155 838
e 155 284
e 155 546
e 155 491
e 155 227
e 155 773
e 155 288
e 156 294
e 156 656
e 156 941
e 157 310
e 157 944
e 157 536
e 157 538
e 158 668
e 158 480
e 158 467
e 158 697
e 158 944
e 161 860
e 161 221
e 161 389
e 161 375
e 162 770
e 162 589
e 163 531
e 163 572
e 164 852
e 164 961
e 166 532
e 166 254
e 166 334
e 166 604
e 167 823
e 167 290
e 167 478
e 167 317
e 167 787
e 167 674
e 168 595
e 168 205
e 168 230
e 169 356
e 169 814
e 171 663
e 171 885
e 171 820
e 171 778
e 171 427
e 171 419
e 173 645
e 173 496
e 173 443
e 174 809
e 174 551
e 175 327
e 175 631
e 175 630
e 175 694
e 175 713
e 175 769
e 178 825
e 178 410
e 178 375
e 178 592
e 178 510
e 178 321
e 179 702
e 179 305
e 179 326
e 179 635
e 179 691
e 179 670
e 179 844
e 180 983
e 180 606
e 180 959
e 180 875
e 180 642
e 180 245
e 181 567
e 181 633
e 181 968
e 181 503
e 181 820
e 184 728
e 184 219
e 184 320
e 184 583
e 185 445
e 185 566
e 185 572
e 185 487
e 186 562
e 186 543
e 186 335
e 186 892
e 186 515
e 186 699
e 189 248
e 189 565
e 189 886
e 190 704
e 190 439
e 190 232
e 191 205
e 191 335
e 191 789
e 191 372
e 191 634
e 192 201
e 192 438
e 193 997
e 193 647
e 193 858
e 193 526
e 193 218
e 193 642
e 193 586
e 193 977
e 193 585
e 194 710
e 194 228
e 194 811
e 194 507
e 195 902
e 195 393
e 195 620
e 195 909
e 197 743
e 197 232
e 197 484
e 197 770
e 198 289
e 198 766
e 198 608
e 198 212
e 198 575
e 198 529
e 199 651
e 199 569
e 201 918
e 201 219
e 201 228
e 202 577
e 202 684
e 202 610
e 204 263
e 204 363
e 204 908
e 204 750
e 204 471
e 204 405
e 204 605
e 205 860
e 205 569
e 208 258
e 208 504
e 209 835
e 209 854
e 209 408
e 209 801
e 209 519
e 210 964
e 210 679
e 210 366
e 210 671
e 210 629
e 210 948
e 212 318
e 212 219
e 212 790
e 212 467
e 214 852
e 214 664
e 214 362
e 214 710
e 214 719
e 215 534
e 215 714
e 215 721
e 215 436
e 215 254
e 215 590
e 215 403
e 215 298
e 216 413
e 216 463
e 217 543
e 217 953
e 217 640
e 217 797
e 219 387
e 219 449
e 219 240
e 219 519
e 220 576
e 220 698
e 220 566
e 221 469
e 221 982
e 221 605
e 222 430
e 222 929
e 222 772
e 223 260
e 223 822
e 223 577
e 223 794
e 224 293
e 224 526
e 225 302
e 225 507
e 225 478
e 227 702
e 227 497
e 228 601
e 229 443
e 229 766
e 229 558
e 230 309
e 230 327
e 230 787
e 230 525
e 232 812
e 233 683
e 233 293
e 233 575
e 233 414
e 233 421
e 235 669
e 235 817
e 235 920
e 238 367
e 238 512
e 238 874
e 240 777
e 240 517
e 241 667
e 241 834
e 241 588
e 241 505
e 242 264
e 242 851
e 242 905
e 242 759
e 243 508
e 243 525
e 243 820
e 243 776
e 243 964
e 244 502
e 244 489
e 244 258
e 244 962
e 244 416
e 246 584
e 246 257
e 246 679
e 246 762
e 247 561
e 247 876
e 247 954
e 248 817
e 248 928
e 248 474
e 248 344
e 249 886
e 249 299
e 249 514
e 250 919
e 250 623
e 251 599
e 251 983
e 251 952
e 251 739
e 251 263
e 254 603
e 254 860
e 257 608
e 257 343
e 257 988
e 257 453
e 258 860
e 258 320
e 258 866
e 258 348
e 260 751
e 260 312
e 260 987
e 260 513
e 260 524
e 261 460
e 263 865
e 263 560
e 263 705
e 264 561
e 266 925
e 266 661
e 267 936
e 267 832
e 267 317
e 267 869
e 267 289
e 267 927
e 274 784
e 274 797
e 274 823
e 274 299
e 275 595
e 275 861
e 275 381
e 276 436
e 276 705
e 276 367
e 276 853
e 276 563
e 276 636
e 277 489
e 277 419
e 277 435
e 277 694
e 277 562
e 277 344
e 277 697
e 278 596
e 278 676
e 278 620
e 278 389
e 279 368
e 279 908
e 279 763
e 279 408
e 279 824
e 280 720
e 280 538
e 280 403
e 280 545
e 282 436
e 282 834
e 282 504
e 283 417
e 283 884
e 283 763
e 283 650
e 284 754
e 284 711
e 284 655
e 284 646
e 284 722
e 286 581
e 286 355
e 286 298
e 286 381
e 288 867
e 288 838
e 288 468
e 288 736
e 288 954
e 290 779
e 290 300
e 290 748
e 291 538
e 291 332
e 291 660
e 292 723
e 292 420
e 292 950
e 293 685
e 293 823
e 293 928
e 293 786
e 293 696
e 294 980
e 294 726
e 298 417
e 298 305
e 298 434
e 298 445
e 299 841
e 299 491
e 300 399
e 300 578
e 300 590
e 300 918
e 300 418
e 300 477
e 302 826
e 302 867
e 302 435
e 302 995
e 303 769
e 303 941
e 303 468
e 303 371
e 304 947
e 304 606
e 304 779
e 304 330
e 305 544
e 306 879
e 306 973
e 306 553
e 307 321
e 307 615
e 307 650
e 307 827
e 309 946
e 309 678
e 309 462
e 309 884
e 310 942
e 310 730
e 310 414
e 310 503
e 310 980
e 311 974
e 311 742
e 311 539
e 311 389
e 312 612
e 312 632
e 314 581
e 314 636
e 315 660
e 315 769
e 315 496
e 315 987
e 315 854
e 316 908
e 316 320
e 316 611
e 316 578
e 316 687
e 318 433
e 320 855
e 320 961
e 320 825
e 320 361
e 321 843
e 322 843
e 322 792
e 322 825
e 322 962
e 322 517
e 323 862
e 323 681
e 323 436
e 324 736
e 324 850
e 324 885
e 325 343
e 325 531
e 325 514
e 326 942
e 326 805
e 326 898
e 327 704
e 327 882
e 327 372
e 327 971
e 329 565
e 329 800
e 330 377
e 331 422
e 331 627
e 331 642
e 332 779
e 332 676
e 332 999
e 332 569
e 332 340
e 333 538
e 333 985
e 333 861
e 334 559
e 334 630
e 334 928
e 335 356
e 335 918
e 335 375
e 339 592
e 339 360
e 339 747
e 340 864
e 341 623
e 341 823
e 341 345
e 342 429
e 342 973
e 342 352
e 342 821
e 342 438
e 342 841
e 343 357
e 343 587
e 343 971
e 343 750
e 343 611
e 343 439
e 343 921
e 344 487
e 345 671
e 345 386
e 345 489
e 346 914
e 346 737
e 346 980
e 348 413
e 349 810
e 349 789
e 349 774
e 349 500
e 350 722
e 350 539
e 350 858
e 350 514
e 350 623
e 350 862
e 351 824
e 351 972
e 351 668
e 352 482
e 352 445
e 352 788
e 352 395
e 353 451
e 353 519
e 353 855
e 355 899
e 355 533
e 355 917
e 355 809
e 356 617
e 357 905
e 357 739
e 357 773
e 357 486
e 359 627
e 359 744
e 360 995
e 360 406
e 360 711
e 360 464
e 361 748
e 361 451
e 362 982
e 362 680
e 363 894
e 363 714
e 363 414
e 365 568
e 365 399
e 365 488
e 366 850
e 366 746
e 366 820
e 366 912
e 367 426
e 368 696
e 368 798
e 368 862
e 371 512
e 371 809
e 371 686
e 372 376
e 372 882
e 372 971
e 373 434
e 373 467
e 373 560
e 373 588
e 373 864
e 374 654
e 374 747
e 374 612
e 375 999
e 375 633
e 376 638
e 377 604
e 377 395
e 377 482
e 377 442
e 379 495
e 379 514
e 379 563
e 381 805
e 381 905
e 382 934
e 382 863
e 383 914
e 383 395
e 383 925
e 383 786
e 386 694
e 386 586
e 386 952
e 386 635
e 387 844
e 387 715
e 387 912
e 387 764
e 387 959
e 387 938
e 387 639
e 388 880
e 388 973
e 389 464
e 389 468
e 390 560
e 390 869
e 390 664
e 390 902
e 390 834
e 393 983
e 395 419
e 395 543
e 397 647
e 399 778
e 401 534
e 401 611
e 401 471
e 401 920
e 403 824
e 403 986
e 403 991
e 403 469
e 404 863
e 404 698
e 405 966
e 405 773
e 405 812
e 405 592
e 406 562
e 406 742
e 406 864
e 408 974
e 408 500
e 408 516
e 408 617
e 408 693
e 410 663
e 410 715
e 413 896
e 413 754
e 413 675
e 413 840
e 413 831
e 413 875
e 413 775
e 414 434
e 414 849
e 416 451
e 417 443
e 417 436
e 417 757
e 418 605
e 418 632
e 419 568
e 419 630
e 419 964
e 420 959
e 420 451
e 420 573
e 420 875
e 421 628
e 421 882
e 421 471
e 421 950
e 421 504
e 422 591
e 422 638
e 422 997
e 423 559
e 423 788
e 423 484
e 426 904
e 426 856
e 426 918
e 427 720
e 427 879
e 427 945
e 427 606
e 427 854
e 429 759
e 430 798
e 430 770
e 433 825
e 433 991
e 433 851
e 433 798
e 434 988
e 434 820
e 435 841
e 435 497
e 435 579
e 436 889
e 436 759
e 438 810
e 438 468
e 438 953
e 439 586
e 439 459
e 439 553
e 442 534
e 442 838
e 442 992
e 443 598
e 443 486
e 444 606
e 444 865
e 444 545
e 444 456
e 445 744
e 445 650
e 445 855
e 445 774
e 446 547
e 446 773
e 448 885
e 448 499
e 449 834
e 449 819
e 449 889
e 449 759
e 450 794
e 450 931
e 451 477
e 451 517
e 451 952
e 451 626
e 452 686
e 452 835
e 452 752
e 453 558
e 453 862
e 455 831
e 455 732
e 455 568
e 455 770
e 456 968
e 456 582
e 458 516
e 458 480
e 458 737
e 459 930
e 460 938
e 460 881
e 460 568
e 461 838
e 461 740
e 461 588
e 461 853
e 461 638
e 462 601
e 462 986
e 462 678
e 463 849
e 463 486
e 463 642
e 463 584
e 464 779
e 464 861
e 464 921
e 464 814
e 465 889
e 465 868
e 466 627
e 466 728
e 466 861
e 467 576
e 467 865
e 467 532
e 467 867
e 467 853
e 467 539
e 468 949
e 469 610
e 469 908
e 470 931
e 470 529
e 470 735
e 470 635
e 474 585
e 474 939
e 474 868
e 475 518
e 475 919
e 475 558
e 476 540
e 476 720
e 476 795
e 476 630
e 477 866
e 477 481
e 477 570
e 478 502
e 480 732
e 480 885
e 480 892
e 481 841
e 481 995
e 482 857
e 482 650
e 484 498
e 486 819
e 486 983
e 486 751
e 487 583
e 488 625
e 488 905
e 489 946
e 489 766
e 489 930
e 494 621
e 494 888
e 494 713
e 495 919
e 495 711
e 497 615
e 497 786
e 498 737
e 498 864
e 498 959
e 498 946
e 498 950
e 499 936
e 499 817
e 499 705
e 499 788
e 500 705
e 500 968
e 500 774
e 500 532
e 500 732
e 502 913
e 503 911
e 503 539
e 504 677
e 504 760
e 505 516
e 505 774
e 505 809
e 507 583
e 507 521
e 507 801
e 507 567
e 508 836
e 508 705
e 508 789
e 510 947
e 510 795
e 510 894
e 511 898
e 511 728
e 512 797
e 512 980
e 512 884
e 512 762
e 512 620
e 513 894
e 513 831
e 513 821
e 515 534
e 515 789
e 516 603
e 516 699
e 516 872
e 517 917
e 517 617
e 517 774
e 518 777
e 518 631
e 518 947
e 519 665
e 520 834
e 520 891
e 521 942
e 522 913
e 522 888
e 522 615
e 524 607
e 524 974
e 524 690
e 525 680
e 525 755
e 525 726
e 526 805
e 527 884
e 527 760
e 528 891
e 528 748
e 528 763
e 528 705
e 528 627
e 529 992
e 529 551
e 531 608
e 531 729
e 532 835
e 532 642
e 532 740
e 533 604
e 533 775
e 533 546
e 534 830
e 534 582
e 536 592
e 536 731
e 536 864
e 537 582
e 537 543
e 537 635
e 537 587
e 539 699
e 539 921
e 539 610
e 540 900
e 541 677
e 541 855
e 541 632
e 543 960
e 543 652
e 544 723
e 544 606
e 544 817
e 544 844
e 544 930
e 545 614
e 545 601
e 545 974
e 545 719
e 545 626
e 546 608
e 546 811
e 547 759
e 547 777
e 551 950
e 552 865
e 558 714
e 558 808
e 559 635
e 560 795
e 560 589
e 561 960
e 561 647
e 562 751
e 562 823
e 563 683
e 563 983
e 565 918
e 566 845
e 567 734
e 567 914
e 567 623
e 568 863
e 568 703
e 569 632
e 569 999
e 570 732
e 570 728
e 572 694
e 572 590
e 573 931
e 573 578
e 573 607
e 573 982
e 573 722
e 573 585
e 574 920
e 575 894
e 576 879
e 576 892
e 577 777
e 578 684
e 578 984
e 581 920
e 582 909
e 582 927
e 583 876
e 584 934
e 584 907
e 585 691
e 587 721
e 588 649
e 588 826
e 589 869
e 589 866
e 589 800
e 589 937
e 590 987
e 590 937
e 591 861
e 591 699
e 592 901
e 592 809
e 595 734
e 596 605
e 596 820
e 596 826
e 596 754
e 598 861
e 598 932
e 599 892
e 599 768
e 604 655
e 604 852
e 605 792
e 605 819
e 605 643
e 606 621
e 607 625
e 607 888
e 607 773
e 607 675
e 608 989
e 609 737
e 609 640
e 609 894
e 609 784
e 610 927
e 610 826
e 611 764
e 611 728
e 611 718
e 612 946
e 612 960
e 612 934
e 614 639
e 615 752
e 615 912
e 621 790
e 623 640
e 623 770
e 623 838
e 625 916
e 625 693
e 625 808
e 625 778
e 626 685
e 627 635
e 627 740
e 628 658
e 628 973
e 629 788
e 629 899
e 629 723
e 630 954
e 631 813
e 631 885
e 632 992
e 633 751
e 633 742
e 634 668
e 634 688
e 635 898
e 636 925
e 636 825
e 638 849
e 638 937
e 642 939
e 643 770
e 643 997
e 643 787
e 645 808
e 646 880
e 648 896
e 648 840
e 648 908
e 648 880
e 650 916
e 651 880
e 651 766
e 651 744
e 652 685
e 654 977
e 654 984
e 655 989
e 656 718
e 656 930
e 656 743
e 658 843
e 658 902
e 660 941
e 661 987
e 661 997
e 661 838
e 661 722
e 663 868
e 663 779
e 663 917
e 664 697
e 665 835
e 665 973
e 667 838
e 667 978
e 667 886
e 668 867
e 669 850
e 669 751
e 670 750
e 670 927
e 670 788
e 671 985
e 671 869
e 671 734
e 671 864
e 674 694
e 674 894
e 675 951
e 675 881
e 676 907
e 677 740
e 677 977
e 677 882
e 680 772
e 681 980
e 683 964
e 684 978
e 684 890
e 684 913
e 687 832
e 687 801
e 687 786
e 687 743
e 687 896
e 688 917
e 688 939
e 691 845
e 693 809
e 694 710
e 695 944
e 695 864
e 696 925
e 696 779
e 696 966
e 697 831
e 697 891
e 697 830
e 697 718
e 697 899
e 697 968
e 697 732
e 699 795
e 702 809
e 703 713
e 704 953
e 707 891
e 707 872
e 710 914
e 711 1000
e 711 971
e 713 813
e 715 720
e 718 794
e 719 917
e 720 1000
e 720 774
e 720 788
e 720 808
e 721 875
e 725 892
e 726 907
e 728 911
e 729 806
e 729 971
e 730 913
e 730 735
e 731 777
e 731 850
e 731 757
e 733 793
e 733 734
e 733 744
e 734 909
e 735 837
e 735 773
e 736 751
e 740 866
e 742 784
e 742 805
e 743 856
e 746 790
e 747 784
e 747 772
e 751 870
e 752 764
e 755 875
e 755 762
e 755 860
e 755 845
e 757 952
e 759 961
e 760 989
e 760 773
e 766 861
e 766 946
e 770 959
e 770 838
e 772 964
e 772 853
e 774 939
e 776 813
e 776 852
e 777 862
e 777 865
e 777 868
e 779 811
e 784 810
e 784 821
e 786 882
e 787 835
e 789 794
e 789 836
e 790 919
e 790 886
e 790 986
e 790 944
e 790 811
e 792 888
e 792 985
e 793 843
e 794 885
e 795 827
e 797 900
e 797 870
e 798 867
e 800 812
e 800 845
e 806 945
e 806 941
e 808 874
e 808 978
e 808 904
e 811 938
e 812 822
e 813 814
e 813 932
e 813 1000
e 814 946
e 817 872
e 822 901
e 823 964
e 825 953
e 825 959
e 825 909
e 826 852
e 827 916
e 830 896
e 831 931
e 832 958
e 832 961
e 834 987
e 834 850
e 835 977
e 835 837
e 836 838
e 841 991
e 841 894
e 841 846
e 844 849
e 844 930
e 845 978
e 846 986
e 851 987
e 854 860
e 857 881
e 857 937
e 858 977
e 861 949
e 861 898
e 863 968
e 869 911
e 874 995
e 876 920
e 879 898
e 880 901
e 881 958
e 885 899
e 894 962
e 900 939
e 900 914
e 904 928
e 911 928
e 911 977
e 912 984
e 921 950
e 927 937
e 931 932
e 932 934
e 936 966
e 949 988
e 958 987
e 961 997
